nN = 8;
nR = 32;
nH = 2;

a = [[16, 23, 19, 24, 20, 19, 15, 16, 23, 25, 17, 18, 22, 16, 17, 18, 19, 23, 25, 22, 16, 17, 15, 22, 21, 22, 24, 17, 16, 24, 19, 15], [20, 18, 21, 15, 18, 23, 16, 18, 22, 22, 18, 24, 20, 15, 15, 17, 23, 18, 25, 16, 20, 19, 23, 17, 22, 22, 17, 17, 17, 17, 17, 24], [25, 24, 20, 17, 22, 17, 25, 25, 16, 19, 15, 20, 20, 17, 20, 25, 20, 21, 20, 21, 19, 19, 15, 20, 18, 21, 21, 25, 21, 18, 15, 19], [18, 20, 16, 18, 15, 22, 18, 21, 17, 20, 22, 15, 20, 15, 17, 23, 15, 17, 21, 23, 18, 23, 23, 17, 16, 18, 25, 23, 24, 19, 25, 19], [17, 16, 19, 15, 18, 21, 19, 20, 23, 19, 19, 18, 18, 21, 15, 18, 18, 18, 21, 18, 17, 19, 22, 25, 18, 24, 18, 24, 16, 20, 17, 22], [17, 24, 18, 20, 16, 23, 23, 19, 17, 19, 16, 22, 17, 19, 23, 19, 24, 23, 25, 25, 19, 23, 22, 25, 15, 24, 22, 18, 20, 23, 19, 16], [16, 15, 18, 17, 17, 15, 19, 15, 22, 22, 15, 17, 25, 23, 20, 15, 22, 24, 20, 23, 16, 17, 15, 20, 21, 16, 20, 25, 24, 20, 20, 24], [15, 22, 24, 17, 19, 20, 23, 24, 18, 16, 25, 22, 17, 15, 21, 15, 15, 15, 21, 16, 21, 23, 17, 19, 25, 21, 24, 19, 17, 18, 15, 15]];
c = [[[0, 0, 0, 0, 0, 0, 0, 0, 0, 0, 0, 0, 0, 0, 0, 0, 0, 0, 0, 0, 0, 0, 0, 0, 0, 0, 0, 0, 0, 0, 0, 0], [30, 40, 33, 30, 48, 30, 43, 42, 50, 39, 32, 50, 40, 40, 36, 47, 47, 46, 37, 31, 38, 41, 36, 40, 48, 34, 38, 50, 36, 33, 48, 30], [35, 39, 43, 32, 33, 46, 33, 39, 50, 34, 46, 47, 46, 48, 49, 36, 43, 47, 35, 42, 50, 43, 30, 33, 33, 46, 46, 36, 44, 48, 43, 44], [36, 33, 41, 31, 45, 45, 45, 40, 34, 40, 40, 48, 43, 44, 45, 46, 45, 42, 30, 46, 45, 40, 38, 30, 36, 47, 35, 42, 50, 32, 49, 39], [36, 38, 48, 34, 48, 47, 30, 36, 39, 49, 44, 41, 50, 37, 37, 35, 49, 38, 32, 50, 37, 31, 39, 36, 32, 38, 42, 49, 42, 31, 37, 44], [45, 30, 35, 36, 38, 44, 43, 30, 35, 49, 39, 39, 48, 42, 41, 41, 50, 45, 36, 31, 31, 34, 31, 42, 37, 40, 34, 41, 36, 43, 47, 43], [32, 33, 32, 48, 45, 36, 33, 32, 40, 44, 33, 42, 38, 33, 37, 35, 30, 46, 38, 30, 48, 47, 30, 42, 33, 33, 43, 32, 36, 50, 46, 45], [45, 34, 31, 40, 34, 49, 35, 44, 32, 41, 38, 46, 38, 32, 36, 50, 36, 45, 49, 36, 37, 35, 49, 30, 34, 48, 43, 49, 42, 40, 42, 43]], [[0, 0, 0, 0, 0, 0, 0, 0, 0, 0, 0, 0, 0, 0, 0, 0, 0, 0, 0, 0, 0, 0, 0, 0, 0, 0, 0, 0, 0, 0, 0, 0], [0, 0, 0, 0, 0, 0, 0, 0, 0, 0, 0, 0, 0, 0, 0, 0, 0, 0, 0, 0, 0, 0, 0, 0, 0, 0, 0, 0, 0, 0, 0, 0], [38, 30, 40, 39, 42, 39, 46, 45, 45, 30, 34, 50, 38, 43, 33, 34, 45, 35, 44, 44, 39, 34, 40, 39, 41, 40, 31, 32, 33, 34, 42, 49], [37, 44, 43, 40, 40, 31, 32, 32, 41, 49, 37, 49, 43, 32, 34, 40, 40, 50, 42, 33, 50, 35, 33, 42, 30, 31, 45, 30, 41, 39, 38, 32], [45, 35, 49, 37, 44, 48, 32, 33, 39, 49, 35, 32, 48, 47, 34, 45, 31, 35, 38, 44, 44, 42, 38, 31, 37, 43, 42, 50, 31, 48, 40, 44], [48, 32, 46, 31, 41, 33, 42, 39, 38, 49, 49, 41, 45, 31, 50, 42, 36, 43, 30, 50, 48, 32, 35, 34, 30, 42, 35, 36, 46, 46, 35, 33], [36, 50, 49, 48, 36, 42, 42, 33, 41, 42, 33, 32, 35, 43, 31, 36, 50, 38, 39, 35, 30, 45, 48, 45, 45, 50, 32, 49, 40, 30, 38, 35], [36, 47, 40, 43, 41, 50, 39, 35, 34, 31, 30, 42, 35, 39, 39, 50, 32, 50, 46, 44, 36, 43, 30, 37, 36, 32, 31, 45, 40, 38, 39, 39]], [[0, 0, 0, 0, 0, 0, 0, 0, 0, 0, 0, 0, 0, 0, 0, 0, 0, 0, 0, 0, 0, 0, 0, 0, 0, 0, 0, 0, 0, 0, 0, 0], [0, 0, 0, 0, 0, 0, 0, 0, 0, 0, 0, 0, 0, 0, 0, 0, 0, 0, 0, 0, 0, 0, 0, 0, 0, 0, 0, 0, 0, 0, 0, 0], [0, 0, 0, 0, 0, 0, 0, 0, 0, 0, 0, 0, 0, 0, 0, 0, 0, 0, 0, 0, 0, 0, 0, 0, 0, 0, 0, 0, 0, 0, 0, 0], [47, 35, 30, 39, 50, 34, 38, 41, 39, 32, 33, 35, 37, 41, 43, 42, 48, 42, 47, 45, 40, 37, 50, 34, 50, 30, 34, 47, 43, 37, 34, 45], [48, 50, 32, 46, 34, 35, 34, 31, 35, 37, 42, 41, 35, 42, 40, 44, 40, 36, 34, 50, 33, 41, 32, 46, 37, 38, 42, 34, 38, 40, 44, 39], [42, 50, 47, 50, 48, 35, 42, 44, 49, 33, 45, 43, 32, 31, 32, 46, 42, 50, 48, 32, 38, 48, 45, 47, 39, 40, 37, 33, 44, 35, 31, 32], [42, 40, 50, 45, 48, 30, 43, 47, 44, 32, 38, 42, 38, 47, 42, 34, 41, 37, 35, 46, 43, 43, 37, 34, 40, 46, 33, 36, 47, 48, 37, 34], [44, 37, 43, 42, 49, 40, 41, 34, 48, 49, 30, 41, 44, 49, 47, 47, 33, 44, 32, 48, 43, 50, 39, 37, 43, 37, 48, 30, 31, 48, 39, 39]], [[0, 0, 0, 0, 0, 0, 0, 0, 0, 0, 0, 0, 0, 0, 0, 0, 0, 0, 0, 0, 0, 0, 0, 0, 0, 0, 0, 0, 0, 0, 0, 0], [0, 0, 0, 0, 0, 0, 0, 0, 0, 0, 0, 0, 0, 0, 0, 0, 0, 0, 0, 0, 0, 0, 0, 0, 0, 0, 0, 0, 0, 0, 0, 0], [0, 0, 0, 0, 0, 0, 0, 0, 0, 0, 0, 0, 0, 0, 0, 0, 0, 0, 0, 0, 0, 0, 0, 0, 0, 0, 0, 0, 0, 0, 0, 0], [0, 0, 0, 0, 0, 0, 0, 0, 0, 0, 0, 0, 0, 0, 0, 0, 0, 0, 0, 0, 0, 0, 0, 0, 0, 0, 0, 0, 0, 0, 0, 0], [37, 44, 38, 48, 50, 46, 48, 31, 50, 42, 33, 34, 34, 45, 50, 38, 42, 49, 50, 42, 49, 47, 42, 50, 40, 30, 47, 40, 46, 38, 31, 46], [48, 42, 45, 38, 50, 35, 30, 48, 34, 30, 30, 34, 35, 36, 44, 38, 43, 46, 31, 46, 34, 34, 32, 40, 30, 47, 40, 31, 37, 37, 32, 31], [45, 50, 31, 35, 30, 44, 39, 31, 36, 41, 43, 44, 50, 45, 36, 45, 43, 32, 50, 36, 38, 44, 38, 31, 41, 43, 49, 46, 30, 41, 38, 36], [49, 38, 46, 33, 35, 42, 30, 37, 43, 41, 49, 49, 49, 33, 40, 45, 33, 39, 43, 39, 49, 33, 42, 41, 41, 42, 45, 39, 42, 50, 35, 32]], [[0, 0, 0, 0, 0, 0, 0, 0, 0, 0, 0, 0, 0, 0, 0, 0, 0, 0, 0, 0, 0, 0, 0, 0, 0, 0, 0, 0, 0, 0, 0, 0], [0, 0, 0, 0, 0, 0, 0, 0, 0, 0, 0, 0, 0, 0, 0, 0, 0, 0, 0, 0, 0, 0, 0, 0, 0, 0, 0, 0, 0, 0, 0, 0], [0, 0, 0, 0, 0, 0, 0, 0, 0, 0, 0, 0, 0, 0, 0, 0, 0, 0, 0, 0, 0, 0, 0, 0, 0, 0, 0, 0, 0, 0, 0, 0], [0, 0, 0, 0, 0, 0, 0, 0, 0, 0, 0, 0, 0, 0, 0, 0, 0, 0, 0, 0, 0, 0, 0, 0, 0, 0, 0, 0, 0, 0, 0, 0], [0, 0, 0, 0, 0, 0, 0, 0, 0, 0, 0, 0, 0, 0, 0, 0, 0, 0, 0, 0, 0, 0, 0, 0, 0, 0, 0, 0, 0, 0, 0, 0], [39, 41, 36, 35, 49, 43, 36, 40, 42, 44, 44, 50, 38, 46, 32, 41, 37, 36, 39, 45, 31, 47, 35, 39, 34, 40, 45, 43, 36, 46, 39, 33], [49, 36, 40, 47, 32, 44, 39, 38, 42, 46, 31, 47, 40, 31, 50, 39, 36, 32, 35, 35, 38, 43, 48, 32, 40, 44, 39, 41, 49, 44, 39, 47], [47, 36, 40, 48, 43, 30, 34, 35, 44, 47, 33, 30, 45, 50, 48, 40, 50, 31, 41, 49, 37, 39, 42, 33, 42, 34, 35, 44, 48, 42, 50, 48]], [[0, 0, 0, 0, 0, 0, 0, 0, 0, 0, 0, 0, 0, 0, 0, 0, 0, 0, 0, 0, 0, 0, 0, 0, 0, 0, 0, 0, 0, 0, 0, 0], [0, 0, 0, 0, 0, 0, 0, 0, 0, 0, 0, 0, 0, 0, 0, 0, 0, 0, 0, 0, 0, 0, 0, 0, 0, 0, 0, 0, 0, 0, 0, 0], [0, 0, 0, 0, 0, 0, 0, 0, 0, 0, 0, 0, 0, 0, 0, 0, 0, 0, 0, 0, 0, 0, 0, 0, 0, 0, 0, 0, 0, 0, 0, 0], [0, 0, 0, 0, 0, 0, 0, 0, 0, 0, 0, 0, 0, 0, 0, 0, 0, 0, 0, 0, 0, 0, 0, 0, 0, 0, 0, 0, 0, 0, 0, 0], [0, 0, 0, 0, 0, 0, 0, 0, 0, 0, 0, 0, 0, 0, 0, 0, 0, 0, 0, 0, 0, 0, 0, 0, 0, 0, 0, 0, 0, 0, 0, 0], [0, 0, 0, 0, 0, 0, 0, 0, 0, 0, 0, 0, 0, 0, 0, 0, 0, 0, 0, 0, 0, 0, 0, 0, 0, 0, 0, 0, 0, 0, 0, 0], [48, 42, 32, 35, 43, 32, 48, 31, 32, 42, 41, 34, 45, 35, 39, 44, 35, 43, 39, 40, 42, 30, 39, 32, 34, 39, 36, 36, 32, 39, 34, 36], [32, 32, 34, 33, 37, 42, 43, 43, 45, 36, 42, 41, 34, 46, 38, 35, 42, 46, 39, 40, 40, 39, 49, 39, 48, 42, 50, 41, 38, 37, 34, 31]], [[0, 0, 0, 0, 0, 0, 0, 0, 0, 0, 0, 0, 0, 0, 0, 0, 0, 0, 0, 0, 0, 0, 0, 0, 0, 0, 0, 0, 0, 0, 0, 0], [0, 0, 0, 0, 0, 0, 0, 0, 0, 0, 0, 0, 0, 0, 0, 0, 0, 0, 0, 0, 0, 0, 0, 0, 0, 0, 0, 0, 0, 0, 0, 0], [0, 0, 0, 0, 0, 0, 0, 0, 0, 0, 0, 0, 0, 0, 0, 0, 0, 0, 0, 0, 0, 0, 0, 0, 0, 0, 0, 0, 0, 0, 0, 0], [0, 0, 0, 0, 0, 0, 0, 0, 0, 0, 0, 0, 0, 0, 0, 0, 0, 0, 0, 0, 0, 0, 0, 0, 0, 0, 0, 0, 0, 0, 0, 0], [0, 0, 0, 0, 0, 0, 0, 0, 0, 0, 0, 0, 0, 0, 0, 0, 0, 0, 0, 0, 0, 0, 0, 0, 0, 0, 0, 0, 0, 0, 0, 0], [0, 0, 0, 0, 0, 0, 0, 0, 0, 0, 0, 0, 0, 0, 0, 0, 0, 0, 0, 0, 0, 0, 0, 0, 0, 0, 0, 0, 0, 0, 0, 0], [0, 0, 0, 0, 0, 0, 0, 0, 0, 0, 0, 0, 0, 0, 0, 0, 0, 0, 0, 0, 0, 0, 0, 0, 0, 0, 0, 0, 0, 0, 0, 0], [35, 40, 50, 33, 38, 40, 39, 35, 42, 34, 35, 44, 32, 38, 39, 37, 43, 35, 35, 38, 46, 41, 47, 50, 33, 49, 44, 49, 38, 42, 35, 32]], [[0, 0, 0, 0, 0, 0, 0, 0, 0, 0, 0, 0, 0, 0, 0, 0, 0, 0, 0, 0, 0, 0, 0, 0, 0, 0, 0, 0, 0, 0, 0, 0], [0, 0, 0, 0, 0, 0, 0, 0, 0, 0, 0, 0, 0, 0, 0, 0, 0, 0, 0, 0, 0, 0, 0, 0, 0, 0, 0, 0, 0, 0, 0, 0], [0, 0, 0, 0, 0, 0, 0, 0, 0, 0, 0, 0, 0, 0, 0, 0, 0, 0, 0, 0, 0, 0, 0, 0, 0, 0, 0, 0, 0, 0, 0, 0], [0, 0, 0, 0, 0, 0, 0, 0, 0, 0, 0, 0, 0, 0, 0, 0, 0, 0, 0, 0, 0, 0, 0, 0, 0, 0, 0, 0, 0, 0, 0, 0], [0, 0, 0, 0, 0, 0, 0, 0, 0, 0, 0, 0, 0, 0, 0, 0, 0, 0, 0, 0, 0, 0, 0, 0, 0, 0, 0, 0, 0, 0, 0, 0], [0, 0, 0, 0, 0, 0, 0, 0, 0, 0, 0, 0, 0, 0, 0, 0, 0, 0, 0, 0, 0, 0, 0, 0, 0, 0, 0, 0, 0, 0, 0, 0], [0, 0, 0, 0, 0, 0, 0, 0, 0, 0, 0, 0, 0, 0, 0, 0, 0, 0, 0, 0, 0, 0, 0, 0, 0, 0, 0, 0, 0, 0, 0, 0], [0, 0, 0, 0, 0, 0, 0, 0, 0, 0, 0, 0, 0, 0, 0, 0, 0, 0, 0, 0, 0, 0, 0, 0, 0, 0, 0, 0, 0, 0, 0, 0]]];

q = [[[9, 118], [20, 120], [14, 116], [17, 105], [13, 107], [17, 122], [12, 120], [10, 118], [11, 114], [12, 117], [6, 119], [5, 106], [24, 115], [6, 109], [21, 122], [23, 114], [11, 107], [16, 105], [19, 110], [14, 121], [18, 112], [22, 107], [12, 116], [10, 110], [25, 123], [10, 112], [25, 120], [21, 117], [23, 117], [25, 124], [16, 123], [20, 120]], [[14, 109], [16, 116], [14, 120], [25, 108], [24, 118], [23, 122], [8, 107], [24, 122], [22, 112], [11, 123], [10, 115], [25, 124], [24, 116], [19, 111], [14, 110], [8, 105], [23, 113], [17, 109], [15, 113], [25, 123], [25, 121], [13, 119], [6, 108], [14, 120], [21, 122], [20, 121], [11, 107], [10, 108], [21, 113], [17, 120], [7, 119], [23, 105]], [[17, 121], [17, 124], [21, 114], [20, 116], [5, 109], [14, 118], [16, 116], [25, 113], [11, 107], [22, 125], [9, 112], [9, 111], [22, 117], [23, 107], [19, 110], [14, 108], [18, 124], [17, 118], [24, 105], [18, 117], [8, 114], [14, 112], [19, 106], [22, 115], [10, 119], [24, 123], [21, 119], [10, 124], [16, 119], [9, 115], [6, 106], [9, 107]], [[25, 106], [18, 105], [11, 110], [5, 123], [23, 118], [18, 117], [21, 115], [23, 116], [17, 115], [19, 111], [10, 105], [24, 109], [20, 107], [20, 109], [5, 109], [12, 116], [21, 119], [16, 114], [17, 108], [24, 107], [5, 118], [9, 120], [24, 109], [17, 108], [21, 115], [18, 112], [6, 125], [24, 118], [19, 121], [13, 115], [9, 124], [21, 122]], [[15, 120], [9, 112], [10, 109], [24, 108], [12, 121], [5, 121], [19, 122], [11, 120], [17, 120], [22, 116], [16, 124], [16, 116], [5, 125], [25, 109], [6, 125], [8, 108], [8, 125], [14, 109], [11, 109], [8, 122], [12, 113], [24, 114], [7, 117], [25, 123], [6, 124], [5, 106], [19, 116], [23, 121], [9, 122], [11, 116], [13, 106], [10, 113]], [[21, 116], [19, 108], [8, 116], [17, 115], [13, 106], [8, 113], [16, 108], [8, 125], [13, 105], [20, 108], [22, 120], [10, 105], [15, 111], [22, 120], [16, 107], [23, 116], [10, 111], [24, 110], [9, 124], [20, 117], [21, 108], [21, 125], [6, 107], [16, 115], [22, 118], [15, 124], [22, 106], [8, 114], [15, 125], [17, 112], [16, 106], [6, 114]], [[25, 120], [12, 109], [21, 117], [6, 107], [18, 120], [20, 115], [10, 118], [14, 110], [11, 117], [5, 118], [23, 125], [13, 122], [13, 115], [8, 117], [5, 120], [10, 112], [10, 125], [18, 113], [17, 109], [24, 125], [22, 105], [10, 113], [7, 116], [6, 124], [5, 116], [23, 119], [15, 109], [10, 121], [11, 116], [18, 116], [15, 124], [11, 119]], [[25, 107], [10, 123], [7, 108], [9, 112], [21, 114], [15, 123], [7, 118], [16, 107], [17, 115], [21, 114], [24, 119], [25, 122], [11, 118], [13, 124], [7, 108], [20, 124], [24, 122], [25, 122], [9, 111], [5, 119], [25, 123], [21, 105], [7, 109], [13, 125], [20, 109], [10, 107], [15, 111], [8, 117], [20, 119], [10, 109], [8, 112], [22, 121]]];
Q = [[50, 369], [54, 368], [50, 368], [53, 365], [42, 374], [49, 364], [43, 374], [49, 370]];
